Maximize

x_0_0 + x_1_0 + x_0_1 + x_1_1 + x_0_2 + x_1_2 + x_0_3 + x_1_3 + x_0_4 + x_1_4 + x_0_5 + x_1_5 + x_0_6 + x_1_6 + x_0_7 + x_1_7 + x_0_8 + x_1_8 + x_0_9 + x_1_9 + x_0_10 + x_1_10 + x_0_11 + x_1_11 + x_0_12 + x_1_12 + x_0_13 + x_1_13 + x_0_14 + x_1_14


Subject To

a0: x_0_0 + x_1_0 <= 1
a1: x_0_1 + x_1_1 <= 1
a2: x_0_2 + x_1_2 <= 1
a3: x_0_3 + x_1_3 <= 1
a4: x_0_4 + x_1_4 <= 1
a5: x_0_5 + x_1_5 <= 1
a6: x_0_6 + x_1_6 <= 1
a7: x_0_7 + x_1_7 <= 1
a8: x_0_8 + x_1_8 <= 1
a9: x_0_9 + x_1_9 <= 1
a10: x_0_10 + x_1_10 <= 1
a11: x_0_11 + x_1_11 <= 1
a12: x_0_12 + x_1_12 <= 1
a13: x_0_13 + x_1_13 <= 1
a14: x_0_14 + x_1_14 <= 1
b0: 20 x_0_0 <= 15
b1: 19 x_0_1 <= 15
b2: 18 x_0_2 <= 15
b3: 17 x_0_3 <= 15
b4: 16 x_0_4 <= 15
b5: 15 x_0_5 <= 15
b6: 14 x_0_6 <= 15
b7: 13 x_0_7 <= 15
b8: 12 x_0_8 <= 15
b9: 11 x_0_9 <= 15
b10: 10 x_0_10 <= 15
b11: 9 x_0_11 <= 15
b12: 8 x_0_12 <= 15
b13: 7 x_0_13 <= 15
b14: 6 x_0_14 <= 15
b15: 20 x_1_0 <= 20
b16: 19 x_1_1 <= 20
b17: 18 x_1_2 <= 20
b18: 17 x_1_3 <= 20
b19: 16 x_1_4 <= 20
b20: 15 x_1_5 <= 20
b21: 14 x_1_6 <= 20
b22: 13 x_1_7 <= 20
b23: 12 x_1_8 <= 20
b24: 11 x_1_9 <= 20
b25: 10 x_1_10 <= 20
b26: 9 x_1_11 <= 20
b27: 8 x_1_12 <= 20
b28: 7 x_1_13 <= 20
b29: 6 x_1_14 <= 20
c0: 20 x_0_0 + 19 x_0_1 + 18 x_0_2 + 17 x_0_3 + 16 x_0_4 + 15 x_0_5 + 14 x_0_6 + 13 x_0_7 + 12 x_0_8 + 11 x_0_9 + 10 x_0_10 + 9 x_0_11 + 8 x_0_12 + 7 x_0_13 + 6 x_0_14 <= 80
c1: 20 x_1_0 + 19 x_1_1 + 18 x_1_2 + 17 x_1_3 + 16 x_1_4 + 15 x_1_5 + 14 x_1_6 + 13 x_1_7 + 12 x_1_8 + 11 x_1_9 + 10 x_1_10 + 9 x_1_11 + 8 x_1_12 + 7 x_1_13 + 6 x_1_14 <= 60




Binary

x_0_0 x_0_1 x_0_2 x_0_3 x_0_4 x_0_5 x_0_6 x_0_7 x_0_8 x_0_9 x_0_10 x_0_11 x_0_12 x_0_13 x_0_14 x_1_0 x_1_1 x_1_2 x_1_3 x_1_4 x_1_5 x_1_6 x_1_7 x_1_8 x_1_9 x_1_10 x_1_11 x_1_12 x_1_13 x_1_14

 


End
